55433
42 33 4807
33 1 7621
1 27 4123
27 31 4460
31 25 299
25 52 874
52 16 739
16 15 556
15 36 679
36 46 402
46 39 214
39 29 1087
29 17 1002
17 48 415
48 49 761
49 19 934
19 41 1369
41 32 362
32 44 676
44 8 383
8 38 368
38 50 1180
50 20 763
20 24 740
24 35 296
35 5 323
5 13 723
13 51 644
51 37 590
37 7 517
7 40 1176
40 43 1279
43 3 1096
3 6 385
6 28 404
28 55 487
55 26 397
26 54 967
54 47 491
47 34 702
34 53 396
53 23 388
23 21 176
21 22 726
22 10 117
10 9 803
9 12 723
12 30 1291
30 4 380
4 18 606
18 14 1537
14 2 433
2 45 787
45 11 436
11 42 1343
